100
32
2
6
10
3
4
1
1
21
4
17
23
4
16
18
19
25
4
18
18
13
1
3
5
25
1
23
6
7
3
19
24
24
17
30
24
4
7
18
27
7
8
11
17
26
25
22
24
21
25
11
1
9
2
31
24
23
5
9
1
8
1
10
1
13
22
25
16
6
5
25
19
10
1
4
13
23
5
8
15
20
31
20
3
12
6
13
29
13
2
3
13
17
3
17
17
1
5
3
4
1